73
120
96	17
95	13
94	17
93	14
92	17
91	14
90	16
89	12
88	8
87	15
86	14
85	13
84	15
83	10
82	13
81	12
80	10
79	7
78	12
77	19
76	18
75	13
74	14
73	8
72	13
71	14
70	14
69	22
68	16
67	17
66	10
65	11
64	12
63	22
62	15
61	9
60	15
59	20
58	19
57	15
56	15
55	14
54	8
53	13
52	8
51	14
50	13
49	12
48	17
47	15
46	16
45	16
44	15
43	11
42	14
41	11
40	13
39	9
38	16
37	6
36	13
35	9
34	11
33	13
32	13
31	17
30	14
29	11
28	14
27	11
26	18
25	21
24	14
